#pLT is two-dimensional [i,r]=[component, individual]
#[i,*] means all data in row i.

param pLT := 
[1,*]
1  0    2  5    3  8    4  3    5  8    6  5    

[2,*]
1  2    2  6    3  2    4  6    5  4    6  4    
;